c colouring generated by benchmark framework
p edge 527 13702
v 1 1
v 2 16
v 3 0
v 4 4
v 5 15
v 6 15
v 7 8
v 8 10
v 9 8
v 10 8
v 11 15
v 12 5
v 13 9
v 14 10
v 15 12
v 16 1
v 17 12
v 18 10
v 19 7
v 20 0
v 21 11
v 22 9
v 23 11
v 24 7
v 25 8
v 26 3
v 27 12
v 28 6
v 29 16
v 30 7
v 31 3
v 32 13
v 33 0
v 34 4
v 35 13
v 36 16
v 37 4
v 38 13
v 39 15
v 40 15
v 41 5
v 42 2
v 43 10
v 44 2
v 45 16
v 46 14
v 47 7
v 48 6
v 49 9
v 50 11
v 51 16
v 52 1
v 53 5
v 54 11
v 55 11
v 56 16
v 57 12
v 58 3
v 59 7
v 60 3
v 61 9
v 62 2
v 63 15
v 64 3
v 65 8
v 66 0
v 67 4
v 68 13
v 69 13
v 70 10
v 71 14
v 72 13
v 73 15
v 74 7
v 75 1
v 76 0
v 77 8
v 78 5
v 79 6
v 80 7
v 81 15
v 82 1
v 83 16
v 84 2
v 85 16
v 86 12
v 87 6
v 88 10
v 89 5
v 90 2
v 91 11
v 92 14
v 93 9
v 94 0
v 95 16
v 96 4
v 97 7
v 98 15
v 99 13
v 100 3
v 101 3
v 102 0
v 103 4
v 104 8
v 105 11
v 106 14
v 107 2
v 108 10
v 109 9
v 110 11
v 111 1
v 112 8
v 113 7
v 114 9
v 115 6
v 116 10
v 117 7
v 118 2
v 119 1
v 120 12
v 121 9
v 122 5
v 123 12
v 124 5
v 125 14
v 126 15
v 127 13
v 128 6
v 129 0
v 130 16
v 131 3
v 132 8
v 133 13
v 134 11
v 135 15
v 136 4
v 137 2
v 138 15
v 139 6
v 140 0
v 141 4
v 142 11
v 143 10
v 144 7
v 145 0
v 146 13
v 147 1
v 148 9
v 149 7
v 150 10
v 151 3
v 152 12
v 153 1
v 154 14
v 155 5
v 156 16
v 157 12
v 158 11
v 159 8
v 160 8
v 161 10
v 162 16
v 163 13
v 164 8
v 165 2
v 166 2
v 167 1
v 168 4
v 169 15
v 170 0
v 171 3
v 172 3
v 173 13
v 174 1
v 175 15
v 176 4
v 177 11
v 178 7
v 179 16
v 180 0
v 181 14
v 182 14
v 183 14
v 184 6
v 185 11
v 186 9
v 187 9
v 188 5
v 189 12
v 190 12
v 191 10
v 192 7
v 193 8
v 194 1
v 195 6
v 196 13
v 197 2
v 198 16
v 199 3
v 200 3
v 201 2
v 202 2
v 203 7
v 204 10
v 205 7
v 206 13
v 207 0
v 208 15
v 209 13
v 210 4
v 211 12
v 212 14
v 213 9
v 214 11
v 215 9
v 216 1
v 217 5
v 218 8
v 219 0
v 220 11
v 221 5
v 222 4
v 223 6
v 224 8
v 225 9
v 226 12
v 227 4
v 228 15
v 229 10
v 230 3
v 231 2
v 232 6
v 233 16
v 234 1
v 235 15
v 236 7
v 237 3
v 238 13
v 239 7
v 240 14
v 241 14
v 242 9
v 243 1
v 244 16
v 245 11
v 246 1
v 247 11
v 248 8
v 249 4
v 250 5
v 251 12
v 252 0
v 253 7
v 254 14
v 255 0
v 256 13
v 257 12
v 258 8
v 259 4
v 260 10
v 261 2
v 262 4
v 263 8
v 264 3
v 265 2
v 266 16
v 267 15
v 268 14
v 269 6
v 270 15
v 271 9
v 272 6
v 273 10
v 274 7
v 275 11
v 276 9
v 277 13
v 278 1
v 279 7
v 280 16
v 281 11
v 282 5
v 283 0
v 284 16
v 285 12
v 286 15
v 287 13
v 288 9
v 289 1
v 290 2
v 291 8
v 292 3
v 293 10
v 294 4
v 295 0
v 296 2
v 297 6
v 298 3
v 299 1
v 300 14
v 301 10
v 302 5
v 303 11
v 304 11
v 305 4
v 306 7
v 307 9
v 308 9
v 309 5
v 310 7
v 311 13
v 312 6
v 313 1
v 314 6
v 315 7
v 316 12
v 317 8
v 318 5
v 319 3
v 320 8
v 321 15
v 322 15
v 323 14
v 324 12
v 325 2
v 326 0
v 327 13
v 328 16
v 329 11
v 330 0
v 331 2
v 332 1
v 333 16
v 334 6
v 335 4
v 336 16
v 337 10
v 338 5
v 339 12
v 340 10
v 341 14
v 342 4
v 343 7
v 344 1
v 345 6
v 346 3
v 347 9
v 348 15
v 349 9
v 350 8
v 351 8
v 352 15
v 353 2
v 354 12
v 355 3
v 356 4
v 357 13
v 358 0
v 359 12
v 360 5
v 361 8
v 362 3
v 363 11
v 364 1
v 365 14
v 366 15
v 367 14
v 368 16
v 369 16
v 370 13
v 371 2
v 372 13
v 373 4
v 374 6
v 375 7
v 376 16
v 377 10
v 378 9
v 379 5
v 380 7
v 381 0
v 382 9
v 383 15
v 384 4
v 385 6
v 386 12
v 387 10
v 388 8
v 389 10
v 390 11
v 391 16
v 392 1
v 393 8
v 394 9
v 395 3
v 396 12
v 397 14
v 398 11
v 399 2
v 400 0
v 401 1
v 402 13
v 403 14
v 404 13
v 405 6
v 406 4
v 407 7
v 408 5
v 409 9
v 410 7
v 411 15
v 412 15
v 413 3
v 414 5
v 415 0
v 416 2
v 417 6
v 418 7
v 419 1
v 420 2
v 421 4
v 422 10
v 423 8
v 424 10
v 425 11
v 426 5
v 427 14
v 428 12
v 429 0
v 430 8
v 431 9
v 432 6
v 433 14
v 434 8
v 435 13
v 436 11
v 437 6
v 438 15
v 439 12
v 440 9
v 441 16
v 442 3
v 443 16
v 444 4
v 445 3
v 446 1
v 447 7
v 448 11
v 449 3
v 450 2
v 451 13
v 452 10
v 453 15
v 454 4
v 455 5
v 456 0
v 457 0
v 458 7
v 459 6
v 460 10
v 461 14
v 462 1
v 463 10
v 464 9
v 465 6
v 466 8
v 467 9
v 468 12
v 469 14
v 470 2
v 471 15
v 472 11
v 473 12
v 474 1
v 475 8
v 476 11
v 477 2
v 478 16
v 479 2
v 480 3
v 481 1
v 482 16
v 483 5
v 484 0
v 485 4
v 486 0
v 487 7
v 488 5
v 489 10
v 490 13
v 491 6
v 492 9
v 493 3
v 494 4
v 495 10
v 496 6
v 497 13
v 498 15
v 499 16
v 500 8
v 501 14
v 502 1
v 503 15
v 504 15
v 505 7
v 506 8
v 507 2
v 508 12
v 509 9
v 510 12
v 511 1
v 512 11
v 513 0
v 514 11
v 515 2
v 516 5
v 517 5
v 518 14
v 519 7
v 520 16
v 521 13
v 522 2
v 523 14
v 524 4
v 525 13
v 526 3
v 527 6
